HorasDisponibles = 35 ; 		% Cantidad de horas habiles para que barco pueda partir

NumBarcos = 45 ; 		% Cantidad de barcos que cruzaran el canal

NumCanales = 1;  

Velocidades = [ 
66000  ,		%  Barco 1
489  ,		%  Barco 2
409  ,		%  Barco 3
211  ,		%  Barco 4
386  ,		%  Barco 5
414  ,		%  Barco 6
253  ,		%  Barco 7
379  ,		%  Barco 8
604  ,		%  Barco 9
415  ,		%  Barco 10
529  ,		%  Barco 11
672  ,		%  Barco 12
538  ,		%  Barco 13
319  ,		%  Barco 14
695  ,		%  Barco 15
305  ,		%  Barco 16
402  ,		%  Barco 17
342  ,		%  Barco 18
723  ,		%  Barco 19
434  ,		%  Barco 20
532  ,		%  Barco 21
631  ,		%  Barco 22
458  ,		%  Barco 23
386  ,		%  Barco 24
630  ,		%  Barco 25
397  ,		%  Barco 26
483  ,		%  Barco 27
377  ,		%  Barco 28
769  ,		%  Barco 29
578  ,		%  Barco 30
573  ,		%  Barco 31
665  ,		%  Barco 32
657  ,		%  Barco 33
888  ,		%  Barco 34
331  ,		%  Barco 35
500  ,		%  Barco 36
748  ,		%  Barco 37
473  ,		%  Barco 38
704  ,		%  Barco 39
269  ,		%  Barco 40
484  ,		%  Barco 41
537  ,		%  Barco 42
621  ,		%  Barco 43
341  ,		%  Barco 44
550  ,		%  Barco 45
595  ,		%  Barco 46
66000  ,		%  Barco 47
 ]; 
HoraEstimadaCruce = [ 
0  ,		%  Barco 1
9  ,		%  Barco 2
3  ,		%  Barco 3
11  ,		%  Barco 4
30  ,		%  Barco 5
28  ,		%  Barco 6
12  ,		%  Barco 7
33  ,		%  Barco 8
18  ,		%  Barco 9
27  ,		%  Barco 10
19  ,		%  Barco 11
13  ,		%  Barco 12
21  ,		%  Barco 13
15  ,		%  Barco 14
1  ,		%  Barco 15
10  ,		%  Barco 16
29  ,		%  Barco 17
10  ,		%  Barco 18
13  ,		%  Barco 19
18  ,		%  Barco 20
1  ,		%  Barco 21
26  ,		%  Barco 22
26  ,		%  Barco 23
6  ,		%  Barco 24
7  ,		%  Barco 25
27  ,		%  Barco 26
12  ,		%  Barco 27
33  ,		%  Barco 28
30  ,		%  Barco 29
25  ,		%  Barco 30
3  ,		%  Barco 31
14  ,		%  Barco 32
3  ,		%  Barco 33
3  ,		%  Barco 34
15  ,		%  Barco 35
11  ,		%  Barco 36
14  ,		%  Barco 37
33  ,		%  Barco 38
35  ,		%  Barco 39
29  ,		%  Barco 40
21  ,		%  Barco 41
29  ,		%  Barco 42
1  ,		%  Barco 43
27  ,		%  Barco 44
15  ,		%  Barco 45
28  ,		%  Barco 46
35  ,		%  Barco 47
 ]; 
PuntoDeArranque = [ 
0  ,		%  Barco 1
0  ,		%  Barco 2
1  ,		%  Barco 3
0  ,		%  Barco 4
1  ,		%  Barco 5
1  ,		%  Barco 6
1  ,		%  Barco 7
0  ,		%  Barco 8
1  ,		%  Barco 9
0  ,		%  Barco 10
0  ,		%  Barco 11
1  ,		%  Barco 12
1  ,		%  Barco 13
0  ,		%  Barco 14
0  ,		%  Barco 15
1  ,		%  Barco 16
1  ,		%  Barco 17
1  ,		%  Barco 18
0  ,		%  Barco 19
0  ,		%  Barco 20
1  ,		%  Barco 21
1  ,		%  Barco 22
1  ,		%  Barco 23
0  ,		%  Barco 24
1  ,		%  Barco 25
0  ,		%  Barco 26
1  ,		%  Barco 27
1  ,		%  Barco 28
1  ,		%  Barco 29
1  ,		%  Barco 30
0  ,		%  Barco 31
0  ,		%  Barco 32
1  ,		%  Barco 33
1  ,		%  Barco 34
1  ,		%  Barco 35
0  ,		%  Barco 36
1  ,		%  Barco 37
1  ,		%  Barco 38
1  ,		%  Barco 39
0  ,		%  Barco 40
0  ,		%  Barco 41
0  ,		%  Barco 42
0  ,		%  Barco 43
0  ,		%  Barco 44
0  ,		%  Barco 45
0  ,		%  Barco 46
0  ,		%  Barco 47
 ]; 
